mixintcount/benchmarks/random_v2l/7_7_446.in
28 9
#	x1	x2	x3	x4	x5	x6	x7;		0 = Real; 1 = Integer
	1	1	1	1	1	1	1
1	3	2	-3	-7	-6	3	-6	-383
1	-3	5	8	5	-7	-2	7	-278
1	10	-9	-8	1	-7	-9	-9	-439
1	5	-3	-1	6	-2	-8	-6	-75
1	4	1	-9	6	-8	-5	10	318
1	8	7	-7	-10	-8	8	4	98
1	8	4	1	-10	3	2	-5	317
1	10	2	9	-5	4	-8	-5	438
1	2	-6	-9	4	-3	-10	-8	-20
1	6	-6	-7	6	-9	5	8	7
1	-3	-4	7	8	6	10	-9	-226
1	2	10	8	-7	-10	-10	-1	-421
1	-6	-2	-7	-1	-4	-7	4	-330
1	-5	5	6	-3	-3	1	-7	-263
1	1	0	0	0	0	0	0	446
1	-1	0	0	0	0	0	0	446
1	0	1	0	0	0	0	0	446
1	0	-1	0	0	0	0	0	446
1	0	0	1	0	0	0	0	446
1	0	0	-1	0	0	0	0	446
1	0	0	0	1	0	0	0	446
1	0	0	0	-1	0	0	0	446
1	0	0	0	0	1	0	0	446
1	0	0	0	0	-1	0	0	446
1	0	0	0	0	0	1	0	446
1	0	0	0	0	0	-1	0	446
1	0	0	0	0	0	0	1	446
1	0	0	0	0	0	0	-1	446
